<number of tasks>
89

<cycle time>
75

<task times>
1 28
2 17
3 7
4 10
5 12
6 16
7 13
8 8
9 13
10 24
11 16
12 24
13 12
14 20
15 22
16 22
17 22
18 47
19 6
20 12
21 6
22 22
23 7
24 14
25 68
26 15
27 8
28 74
29 32
30 11
31 18
32 15
33 42
34 27
35 38
36 38
37 26
38 35
39 31
40 8
41 14
42 8
43 8
44 8
45 17
46 7
47 19
48 12
49 24
50 26
51 22
52 14
53 27
54 60
55 4
56 2
57 1
58 9
59 5
60 6
61 7
62 12
63 2
64 11
65 14
66 6
67 21
68 14
69 1
70 6
71 21
72 11
73 14
74 28
75 12
76 11
77 30
78 22
79 14
80 31
81 18
82 16
83 7
84 38
85 8
86 31
87 29
88 12
89 18

<precedence relations>
1,2
2,3
3,4
4,5
4,6
4,7
4,8
4,9
5,10
6,11
7,12
8,18
9,18
10,14
11,12
12,13
13,14
14,15
14,16
15,17
16,54
17,18
18,19
18,20
19,22
20,21
20,28
21,54
22,23
23,24
24,25
25,26
25,27
25,29
26,37
27,33
28,29
29,31
30,54
31,32
32,33
33,34
34,35
35,36
35,37
36,38
37,38
38,39
39,40
39,41
39,42
39,43
40,44
41,53
42,53
43,45
44,52
45,46
46,47
47,48
47,49
49,50
50,51
51,52
52,53
53,68
53,69
53,70
53,71
54,55
55,56
56,57
57,58
57,59
57,60
57,61
57,62
57,63
57,64
57,65
57,66
58,67
59,67
60,67
61,67
62,67
63,67
64,67
65,67
66,67
67,73
68,72
69,72
70,72
71,73
72,78
72,80
73,74
74,75
74,76
75,77
76,81
77,78
78,79
79,81
80,81
81,82
81,84
81,85
82,83
83,86
84,86
85,86
86,87
87,88
87,89

<setup times forward>
1,30:4
2,30:4
3,30:4
4,5:7
4,6:7
4,8:3
4,9:3
4,30:4
5,7:7
5,8:4
5,9:10
5,10:10
5,13:10
5,30:11
6,7:7
6,8:4
6,9:10
6,10:10
6,30:11
7,5:7
7,6:7
7,8:3
7,9:3
7,10:3
7,11:7
7,12:7
7,30:4
8,5:4
8,6:4
8,7:3
8,9:6
8,10:6
8,11:4
8,12:4
8,13:6
8,14:6
8,18:1
8,30:7
9,5:10
9,6:10
9,7:3
9,8:6
9,11:10
9,12:10
9,15:6
9,16:6
9,17:6
9,18:5
9,30:1
10,6:10
10,7:3
10,8:6
10,11:10
10,12:10
10,30:1
11,7:7
11,8:4
11,9:10
11,10:10
11,30:11
12,8:4
12,9:10
12,10:10
12,13:10
12,30:11
13,5:10
13,8:6
13,30:1
14,8:6
14,15:6
14,16:6
14,30:1
15,9:6
15,30:7
16,9:6
16,18:1
16,19:1
16,20:1
16,21:1
16,22:7
16,23:7
16,24:7
16,25:3
16,26:11
16,27:1
16,28:9
16,29:1
16,30:7
16,31:1
16,32:1
16,33:6
16,34:6
16,35:4
16,36:1
16,37:4
16,38:2
16,39:2
16,40:11
16,41:4
16,42:4
16,43:12
16,44:11
16,45:12
16,46:12
16,47:12
16,48:1
16,49:12
16,50:11
16,51:11
16,52:4
16,53:4
16,54:11
16,68:5
16,69:5
16,70:4
16,71:5
16,72:5
16,80:1
17,9:6
17,18:1
17,30:7
18,16:1
18,30:6
19,16:1
19,22:6
19,28:8
19,30:6
19,54:10
19,55:3
19,56:3
19,57:3
19,58:3
19,59:10
19,60:5
19,61:4
19,63:3
19,66:10
19,67:4
20,16:1
20,22:6
20,23:6
20,24:6
20,25:2
20,26:10
20,27:2
20,28:8
20,30:6
21,16:1
21,22:6
21,23:6
21,24:6
21,25:2
21,26:10
21,27:2
21,28:8
21,29:2
21,30:6
21,31:2
21,32:2
21,33:5
21,34:5
21,35:3
21,37:3
21,38:3
21,39:3
21,40:10
21,41:5
21,42:5
21,43:11
21,44:10
21,45:11
21,46:11
21,47:11
21,48:2
21,49:11
21,50:10
21,51:10
21,52:5
21,53:5
21,54:10
21,68:4
21,69:4
21,70:5
21,71:4
21,72:4
22,16:7
22,20:6
22,21:6
22,28:2
22,54:4
22,55:3
22,56:3
22,57:3
22,58:9
22,59:4
22,60:11
22,61:2
22,62:6
22,63:3
22,64:6
22,65:6
22,66:4
22,67:2
23,16:7
23,20:6
23,21:6
23,28:2
23,54:4
23,55:3
23,56:3
23,57:3
23,58:9
23,59:4
23,60:11
23,61:2
23,62:6
23,63:3
23,64:6
23,65:6
23,66:4
23,67:2
24,16:7
24,20:6
24,21:6
24,25:4
24,28:2
24,54:4
24,55:3
24,56:3
24,57:3
24,58:9
24,59:4
24,60:11
24,61:2
24,62:6
24,63:3
24,64:6
24,65:6
24,66:4
24,67:2
25,16:3
25,20:2
25,21:2
25,26:8
25,27:4
25,28:6
25,29:4
25,30:4
25,54:8
25,55:1
25,56:1
25,57:1
25,58:5
25,59:8
25,60:7
25,61:2
25,62:2
25,63:1
25,64:2
25,65:2
25,66:8
25,67:2
26,16:11
26,20:10
26,21:10
26,27:12
26,28:2
26,29:12
26,30:4
26,31:12
26,32:12
26,33:5
26,34:5
26,35:7
26,36:10
26,37:7
26,55:7
26,56:7
26,57:7
26,58:13
26,60:15
26,61:6
26,62:10
26,63:7
26,64:10
26,65:10
26,67:6
27,16:1
27,20:2
27,21:2
27,26:12
27,28:10
27,30:8
27,33:7
27,54:12
27,55:5
27,56:5
27,57:5
27,58:1
27,59:12
27,60:3
27,61:6
27,62:2
27,63:5
27,64:2
27,65:2
27,66:12
27,67:6
28,16:9
28,19:8
28,21:8
28,22:2
28,23:2
28,24:2
28,25:6
28,26:2
28,27:10
28,29:10
28,30:2
28,54:2
28,55:5
28,56:5
28,57:5
28,58:11
28,59:2
28,60:13
28,61:4
28,62:8
28,63:5
28,64:8
28,65:8
28,66:2
28,67:4
29,16:1
29,21:2
29,26:12
29,30:8
29,54:12
29,55:5
29,56:5
29,57:5
29,58:1
29,59:12
29,60:3
29,61:6
29,62:2
29,63:5
29,64:2
29,65:2
29,66:12
29,67:6
30,1:4
30,2:4
30,3:4
30,4:4
30,5:11
30,6:11
30,7:4
30,8:7
30,9:1
30,10:1
30,11:11
30,12:11
30,13:1
30,14:1
30,15:7
30,16:7
30,17:7
30,18:6
30,19:6
30,20:6
30,21:6
30,25:4
30,26:4
30,27:8
30,28:2
30,29:8
30,31:8
30,32:8
30,33:1
30,34:1
30,35:3
30,36:6
30,37:3
30,38:9
30,39:9
30,40:4
30,41:11
30,42:11
30,43:5
30,44:4
30,45:5
30,46:5
30,47:5
30,48:8
30,49:5
30,50:4
30,51:4
30,52:11
30,53:11
30,54:4
30,68:2
30,69:2
30,70:11
30,71:2
30,72:2
30,80:6
31,16:1
31,21:2
31,26:12
31,30:8
31,54:12
31,55:5
31,56:5
31,57:5
31,58:1
31,59:12
31,60:3
31,61:6
31,62:2
31,63:5
31,64:2
31,65:2
31,66:12
31,67:6
32,16:1
32,21:2
32,26:12
32,30:8
32,33:7
32,54:12
32,55:5
32,56:5
32,57:5
32,58:1
32,59:12
32,60:3
32,61:6
32,62:2
32,63:5
32,64:2
32,65:2
32,66:12
32,67:6
33,16:6
33,21:5
33,26:5
33,30:1
33,54:5
33,55:2
33,56:2
33,57:2
33,58:8
33,59:5
33,60:10
33,61:1
33,62:5
33,63:2
33,64:5
33,65:5
33,66:5
33,67:1
34,16:6
34,21:5
34,26:5
34,30:1
34,35:2
34,54:5
34,55:2
34,56:2
34,57:2
34,58:8
34,59:5
34,60:10
34,61:1
34,62:5
34,63:2
34,64:5
34,65:5
34,66:5
34,67:1
35,16:4
35,21:3
35,26:7
35,30:3
35,36:3
35,54:7
35,58:6
35,59:7
35,60:8
35,61:1
35,62:3
35,64:3
35,65:3
35,66:7
35,67:1
36,16:1
36,26:10
36,30:6
36,37:3
36,38:3
36,54:10
36,55:3
36,56:3
36,57:3
36,58:3
36,59:10
36,60:5
36,61:4
36,63:3
36,66:10
36,67:4
37,16:4
37,21:3
37,30:3
37,36:3
37,38:6
37,54:7
37,58:6
37,59:7
37,60:8
37,61:1
37,62:3
37,64:3
37,65:3
37,66:7
37,67:1
38,16:2
38,21:3
38,30:9
38,54:13
38,55:6
38,56:6
38,57:6
38,59:13
38,60:2
38,61:7
38,62:3
38,63:6
38,64:3
38,65:3
38,66:13
38,67:7
39,16:2
39,21:3
39,30:9
39,40:13
39,41:2
39,42:2
39,43:14
39,54:13
39,55:6
39,56:6
39,57:6
39,59:13
39,60:2
39,61:7
39,62:3
39,63:6
39,64:3
39,65:3
39,66:13
39,67:7
40,16:11
40,21:10
40,30:4
40,41:15
40,42:15
40,43:1
40,45:1
40,46:1
40,47:1
40,48:12
40,49:1
40,55:7
40,56:7
40,57:7
40,58:13
40,60:15
40,61:6
40,62:10
40,63:7
40,64:10
40,65:10
40,67:6
41,16:4
41,21:5
41,30:11
41,40:15
41,43:16
41,44:15
41,45:16
41,46:16
41,47:16
41,48:3
41,49:16
41,50:15
41,51:15
41,54:15
41,55:8
41,56:8
41,57:8
41,58:2
41,59:15
41,61:9
41,62:5
41,63:8
41,64:5
41,65:5
41,66:15
41,67:9
42,16:4
42,21:5
42,30:11
42,40:15
42,43:16
42,44:15
42,45:16
42,46:16
42,47:16
42,48:3
42,49:16
42,50:15
42,51:15
42,54:15
42,55:8
42,56:8
42,57:8
42,58:2
42,59:15
42,61:9
42,62:5
42,63:8
42,64:5
42,65:5
42,66:15
42,67:9
43,16:12
43,21:11
43,30:5
43,40:1
43,41:16
43,42:16
43,44:1
43,54:1
43,55:8
43,56:8
43,57:8
43,58:14
43,59:1
43,60:16
43,61:7
43,62:11
43,63:8
43,64:11
43,65:11
43,66:1
43,67:7
44,16:11
44,21:10
44,30:4
44,41:15
44,42:15
44,43:1
44,45:1
44,46:1
44,47:1
44,48:12
44,49:1
44,52:15
44,55:7
44,56:7
44,57:7
44,58:13
44,60:15
44,61:6
44,62:10
44,63:7
44,64:10
44,65:10
44,67:6
45,16:12
45,21:11
45,30:5
45,40:1
45,41:16
45,42:16
45,44:1
45,54:1
45,55:8
45,56:8
45,57:8
45,58:14
45,59:1
45,60:16
45,61:7
45,62:11
45,63:8
45,64:11
45,65:11
45,66:1
45,67:7
46,16:12
46,21:11
46,30:5
46,40:1
46,41:16
46,42:16
46,44:1
46,54:1
46,55:8
46,56:8
46,57:8
46,58:14
46,59:1
46,60:16
46,61:7
46,62:11
46,63:8
46,64:11
46,65:11
46,66:1
46,67:7
47,16:12
47,21:11
47,30:5
47,40:1
47,41:16
47,42:16
47,44:1
47,48:13
47,54:1
47,55:8
47,56:8
47,57:8
47,58:14
47,59:1
47,60:16
47,61:7
47,62:11
47,63:8
47,64:11
47,65:11
47,66:1
47,67:7
48,16:1
48,21:2
48,30:8
48,40:12
48,41:3
48,42:3
48,44:12
48,49:13
48,50:12
48,51:12
48,52:3
48,53:3
48,54:12
48,55:5
48,56:5
48,57:5
48,58:1
48,59:12
48,60:3
48,61:6
48,62:2
48,63:5
48,64:2
48,65:2
48,66:12
48,67:6
48,68:6
48,69:6
48,70:3
48,71:6
48,72:6
48,73:2
48,74:2
48,75:1
48,76:1
48,77:1
48,78:1
48,79:1
48,80:2
48,81:1
48,82:1
48,83:1
48,84:10
48,85:1
48,86:10
49,16:12
49,21:11
49,30:5
49,40:1
49,41:16
49,42:16
49,44:1
49,48:13
49,50:1
49,54:1
49,55:8
49,56:8
49,57:8
49,58:14
49,59:1
49,60:16
49,61:7
49,62:11
49,63:8
49,64:11
49,65:11
49,66:1
49,67:7
50,16:11
50,21:10
50,30:4
50,41:15
50,42:15
50,48:12
50,55:7
50,56:7
50,57:7
50,58:13
50,60:15
50,61:6
50,62:10
50,63:7
50,64:10
50,65:10
50,67:6
51,16:11
51,21:10
51,30:4
51,41:15
51,42:15
51,48:12
51,52:15
51,55:7
51,56:7
51,57:7
51,58:13
51,60:15
51,61:6
51,62:10
51,63:7
51,64:10
51,65:10
51,67:6
52,16:4
52,21:5
52,30:11
52,48:3
52,54:15
52,55:8
52,56:8
52,57:8
52,58:2
52,59:15
52,61:9
52,62:5
52,63:8
52,64:5
52,65:5
52,66:15
52,67:9
53,16:4
53,21:5
53,30:11
53,48:3
53,54:15
53,55:8
53,56:8
53,57:8
53,58:2
53,59:15
53,61:9
53,62:5
53,63:8
53,64:5
53,65:5
53,66:15
53,67:9
53,68:9
53,69:9
53,71:9
54,19:10
54,22:4
54,23:4
54,24:4
54,25:8
54,27:12
54,28:2
54,29:12
54,31:12
54,32:12
54,33:5
54,34:5
54,35:7
54,36:10
54,37:7
54,38:13
54,39:13
54,41:15
54,42:15
54,43:1
54,45:1
54,46:1
54,47:1
54,48:12
54,49:1
54,52:15
54,53:15
54,55:7
54,68:6
54,69:6
54,70:15
54,71:6
54,72:6
54,80:10
55,19:3
55,22:3
55,23:3
55,24:3
55,25:1
55,26:7
55,27:5
55,28:5
55,29:5
55,31:5
55,32:5
55,33:2
55,34:2
55,36:3
55,38:6
55,39:6
55,40:7
55,41:8
55,42:8
55,43:8
55,44:7
55,45:8
55,46:8
55,47:8
55,48:5
55,49:8
55,50:7
55,51:7
55,52:8
55,53:8
55,68:1
55,69:1
55,70:8
55,71:1
55,72:1
55,80:3
56,19:3
56,22:3
56,23:3
56,24:3
56,25:1
56,26:7
56,27:5
56,28:5
56,29:5
56,31:5
56,32:5
56,33:2
56,34:2
56,36:3
56,38:6
56,39:6
56,40:7
56,41:8
56,42:8
56,43:8
56,44:7
56,45:8
56,46:8
56,47:8
56,48:5
56,49:8
56,50:7
56,51:7
56,52:8
56,53:8
56,68:1
56,69:1
56,70:8
56,71:1
56,72:1
56,80:3
57,19:3
57,22:3
57,23:3
57,24:3
57,25:1
57,26:7
57,27:5
57,28:5
57,29:5
57,31:5
57,32:5
57,33:2
57,34:2
57,36:3
57,38:6
57,39:6
57,40:7
57,41:8
57,42:8
57,43:8
57,44:7
57,45:8
57,46:8
57,47:8
57,48:5
57,49:8
57,50:7
57,51:7
57,52:8
57,53:8
57,58:6
57,59:7
57,60:8
57,61:1
57,62:3
57,64:3
57,65:3
57,66:7
57,68:1
57,69:1
57,70:8
57,71:1
57,72:1
57,80:3
58,19:3
58,22:9
58,23:9
58,24:9
58,25:5
58,26:13
58,27:1
58,28:11
58,29:1
58,31:1
58,32:1
58,33:8
58,34:8
58,35:6
58,36:3
58,37:6
58,40:13
58,41:2
58,42:2
58,43:14
58,44:13
58,45:14
58,46:14
58,47:14
58,48:1
58,49:14
58,50:13
58,51:13
58,52:2
58,53:2
58,59:13
58,60:2
58,61:7
58,62:3
58,63:6
58,64:3
58,65:3
58,66:13
58,67:7
58,68:7
58,69:7
58,70:2
58,71:7
58,72:7
58,80:3
59,19:10
59,22:4
59,23:4
59,24:4
59,25:8
59,27:12
59,28:2
59,29:12
59,31:12
59,32:12
59,33:5
59,34:5
59,35:7
59,36:10
59,37:7
59,38:13
59,39:13
59,41:15
59,42:15
59,43:1
59,45:1
59,46:1
59,47:1
59,48:12
59,49:1
59,52:15
59,53:15
59,58:13
59,60:15
59,61:6
59,62:10
59,63:7
59,64:10
59,65:10
59,67:6
59,68:6
59,69:6
59,70:15
59,71:6
59,72:6
59,80:10
60,19:5
60,22:11
60,23:11
60,24:11
60,25:7
60,26:15
60,27:3
60,28:13
60,29:3
60,31:3
60,32:3
60,33:10
60,34:10
60,35:8
60,36:5
60,37:8
60,38:2
60,39:2
60,40:15
60,43:16
60,44:15
60,45:16
60,46:16
60,47:16
60,48:3
60,49:16
60,50:15
60,51:15
60,58:2
60,59:15
60,61:9
60,62:5
60,63:8
60,64:5
60,65:5
60,66:15
60,67:9
60,68:9
60,69:9
60,71:9
60,72:9
60,80:5
61,19:4
61,22:2
61,23:2
61,24:2
61,25:2
61,26:6
61,27:6
61,28:4
61,29:6
61,31:6
61,32:6
61,33:1
61,34:1
61,35:1
61,36:4
61,37:1
61,38:7
61,39:7
61,40:6
61,41:9
61,42:9
61,43:7
61,44:6
61,45:7
61,46:7
61,47:7
61,48:6
61,49:7
61,50:6
61,51:6
61,52:9
61,53:9
61,58:7
61,59:6
61,60:9
61,62:4
61,63:1
61,64:4
61,65:4
61,66:6
61,70:9
61,80:4
62,22:6
62,23:6
62,24:6
62,25:2
62,26:10
62,27:2
62,28:8
62,29:2
62,31:2
62,32:2
62,33:5
62,34:5
62,35:3
62,37:3
62,38:3
62,39:3
62,40:10
62,41:5
62,42:5
62,43:11
62,44:10
62,45:11
62,46:11
62,47:11
62,48:2
62,49:11
62,50:10
62,51:10
62,52:5
62,53:5
62,58:3
62,59:10
62,60:5
62,61:4
62,63:3
62,66:10
62,67:4
62,68:4
62,69:4
62,70:5
62,71:4
62,72:4
63,19:3
63,22:3
63,23:3
63,24:3
63,25:1
63,26:7
63,27:5
63,28:5
63,29:5
63,31:5
63,32:5
63,33:2
63,34:2
63,36:3
63,38:6
63,39:6
63,40:7
63,41:8
63,42:8
63,43:8
63,44:7
63,45:8
63,46:8
63,47:8
63,48:5
63,49:8
63,50:7
63,51:7
63,52:8
63,53:8
63,58:6
63,59:7
63,60:8
63,61:1
63,62:3
63,64:3
63,65:3
63,66:7
63,67:1
63,68:1
63,69:1
63,70:8
63,71:1
63,72:1
63,80:3
64,22:6
64,23:6
64,24:6
64,25:2
64,26:10
64,27:2
64,28:8
64,29:2
64,31:2
64,32:2
64,33:5
64,34:5
64,35:3
64,37:3
64,38:3
64,39:3
64,40:10
64,41:5
64,42:5
64,43:11
64,44:10
64,45:11
64,46:11
64,47:11
64,48:2
64,49:11
64,50:10
64,51:10
64,52:5
64,53:5
64,58:3
64,59:10
64,60:5
64,61:4
64,63:3
64,66:10
64,67:4
64,68:4
64,69:4
64,70:5
64,71:4
64,72:4
65,22:6
65,23:6
65,24:6
65,25:2
65,26:10
65,27:2
65,28:8
65,29:2
65,31:2
65,32:2
65,33:5
65,34:5
65,35:3
65,37:3
65,38:3
65,39:3
65,40:10
65,41:5
65,42:5
65,43:11
65,44:10
65,45:11
65,46:11
65,47:11
65,48:2
65,49:11
65,50:10
65,51:10
65,52:5
65,53:5
65,58:3
65,59:10
65,60:5
65,61:4
65,63:3
65,66:10
65,67:4
65,68:4
65,69:4
65,70:5
65,71:4
65,72:4
66,19:10
66,22:4
66,23:4
66,24:4
66,25:8
66,27:12
66,28:2
66,29:12
66,31:12
66,32:12
66,33:5
66,34:5
66,35:7
66,36:10
66,37:7
66,38:13
66,39:13
66,41:15
66,42:15
66,43:1
66,45:1
66,46:1
66,47:1
66,48:12
66,49:1
66,52:15
66,53:15
66,58:13
66,60:15
66,61:6
66,62:10
66,63:7
66,64:10
66,65:10
66,67:6
66,68:6
66,69:6
66,70:15
66,71:6
66,72:6
66,80:10
67,19:4
67,22:2
67,23:2
67,24:2
67,25:2
67,26:6
67,27:6
67,28:4
67,29:6
67,31:6
67,32:6
67,33:1
67,34:1
67,35:1
67,36:4
67,37:1
67,38:7
67,39:7
67,40:6
67,41:9
67,42:9
67,43:7
67,44:6
67,45:7
67,46:7
67,47:7
67,48:6
67,49:7
67,50:6
67,51:6
67,52:9
67,53:9
67,70:9
67,73:4
67,80:4
68,16:5
68,21:4
68,30:2
68,48:6
68,54:6
68,55:1
68,56:1
68,57:1
68,58:7
68,59:6
68,60:9
68,62:4
68,63:1
68,64:4
68,65:4
68,66:6
68,70:9
68,73:4
68,74:4
68,75:7
68,76:7
68,77:7
69,16:5
69,21:4
69,30:2
69,48:6
69,54:6
69,55:1
69,56:1
69,57:1
69,58:7
69,59:6
69,60:9
69,62:4
69,63:1
69,64:4
69,65:4
69,66:6
69,70:9
69,73:4
69,74:4
69,75:7
69,76:7
69,77:7
70,16:4
70,21:5
70,30:11
70,48:3
70,54:15
70,55:8
70,56:8
70,57:8
70,58:2
70,59:15
70,61:9
70,62:5
70,63:8
70,64:5
70,65:5
70,66:15
70,67:9
70,68:9
70,69:9
70,71:9
70,72:9
70,73:5
70,74:5
70,75:2
70,76:2
70,77:2
71,16:5
71,21:4
71,30:2
71,48:6
71,54:6
71,55:1
71,56:1
71,57:1
71,58:7
71,59:6
71,60:9
71,62:4
71,63:1
71,64:4
71,65:4
71,66:6
71,70:9
71,73:4
71,80:4
72,16:5
72,21:4
72,30:2
72,48:6
72,54:6
72,55:1
72,56:1
72,57:1
72,58:7
72,59:6
72,60:9
72,62:4
72,63:1
72,64:4
72,65:4
72,66:6
72,73:4
72,74:4
72,75:7
72,76:7
72,77:7
72,78:7
72,80:4
73,48:2
73,68:4
73,69:4
73,70:5
73,72:4
74,48:2
74,68:4
74,69:4
74,70:5
74,72:4
74,75:3
74,76:3
75,48:1
75,68:7
75,69:7
75,70:2
75,72:7
75,80:3
76,48:1
76,68:7
76,69:7
76,70:2
76,72:7
76,80:3
77,48:1
77,68:7
77,69:7
77,70:2
77,72:7
77,80:3
78,48:1
78,80:3
79,48:1
79,80:3
80,16:1
80,30:6
80,48:2
80,54:10
80,55:3
80,56:3
80,57:3
80,58:3
80,59:10
80,60:5
80,61:4
80,63:3
80,66:10
80,67:4
80,71:4
80,75:3
80,76:3
80,77:3
80,78:3
80,79:3
80,81:3
81,48:1
81,84:11
82,48:1
82,84:11
83,48:1
83,84:11
83,86:11
84,48:10
84,82:11
84,83:11
84,85:11
85,48:1
85,84:11
85,86:11
86,48:10
86,87:10

<setup times backward>
1,30:4
2,30:4
3,30:4
4,30:4
5,1:7
5,2:7
5,3:7
5,4:7
5,7:7
5,8:4
5,9:10
5,13:10
5,30:11
6,1:7
6,2:7
6,3:7
6,4:7
6,7:7
6,8:4
6,9:10
6,10:10
6,30:11
7,9:3
7,10:3
7,30:4
8,1:3
8,2:3
8,3:3
8,4:3
8,7:3
8,9:6
8,10:6
8,13:6
8,14:6
8,30:7
9,30:1
10,30:1
11,1:7
11,2:7
11,3:7
11,4:7
11,7:7
11,8:4
11,9:10
11,10:10
11,30:11
12,1:7
12,2:7
12,3:7
12,4:7
12,7:7
12,8:4
12,9:10
12,10:10
12,30:11
13,30:1
14,30:1
15,1:3
15,2:3
15,3:3
15,4:3
15,7:3
15,9:6
15,10:6
15,13:6
15,14:6
15,30:7
16,1:3
16,2:3
16,3:3
16,4:3
16,7:3
16,9:6
16,10:6
16,13:6
16,14:6
16,18:1
16,19:1
16,20:1
16,21:1
16,22:7
16,23:7
16,24:7
16,25:3
16,26:11
16,28:9
16,30:7
16,33:6
16,34:6
16,35:4
16,36:1
16,37:4
16,40:11
16,43:12
16,44:11
16,45:12
16,46:12
16,47:12
16,49:12
16,50:11
16,51:11
16,68:5
16,69:5
16,71:5
16,72:5
16,80:1
17,1:3
17,2:3
17,3:3
17,4:3
17,7:3
17,9:6
17,10:6
17,13:6
17,14:6
17,30:7
18,1:2
18,2:2
18,3:2
18,4:2
18,7:2
18,9:5
18,10:5
18,13:5
18,14:5
18,30:6
19,1:2
19,2:2
19,3:2
19,4:2
19,7:2
19,9:5
19,10:5
19,13:5
19,14:5
19,28:8
19,30:6
19,54:10
19,55:3
19,56:3
19,57:3
19,59:10
19,61:4
19,63:3
19,66:10
19,67:4
20,1:2
20,2:2
20,3:2
20,4:2
20,7:2
20,9:5
20,10:5
20,13:5
20,14:5
20,22:6
20,23:6
20,24:6
20,25:2
20,26:10
20,30:6
21,1:2
21,2:2
21,3:2
21,4:2
21,7:2
21,9:5
21,10:5
21,13:5
21,14:5
21,22:6
21,23:6
21,24:6
21,25:2
21,26:10
21,28:8
21,30:6
21,33:5
21,34:5
21,35:3
21,37:3
21,40:10
21,43:11
21,44:10
21,45:11
21,46:11
21,47:11
21,49:11
21,50:10
21,51:10
21,68:4
21,69:4
21,71:4
21,72:4
22,28:2
22,54:4
22,59:4
22,66:4
23,28:2
23,54:4
23,59:4
23,66:4
24,28:2
24,54:4
24,59:4
24,66:4
25,9:3
25,10:3
25,13:3
25,14:3
25,22:4
25,23:4
25,24:4
25,28:6
25,30:4
25,54:8
25,55:1
25,56:1
25,57:1
25,59:8
25,61:2
25,63:1
25,66:8
25,67:2
27,1:4
27,2:4
27,3:4
27,4:4
27,7:4
27,8:1
27,9:7
27,10:7
27,13:7
27,14:7
27,15:1
27,16:1
27,17:1
27,18:2
27,19:2
27,20:2
27,21:2
27,22:8
27,23:8
27,24:8
27,25:4
27,26:12
27,28:10
27,30:8
27,54:12
27,55:5
27,56:5
27,57:5
27,59:12
27,61:6
27,62:2
27,63:5
27,64:2
27,65:2
27,66:12
27,67:6
28,26:2
28,54:2
28,59:2
28,66:2
29,1:4
29,2:4
29,3:4
29,4:4
29,7:4
29,8:1
29,9:7
29,10:7
29,13:7
29,14:7
29,15:1
29,16:1
29,17:1
29,18:2
29,19:2
29,20:2
29,21:2
29,22:8
29,23:8
29,24:8
29,25:4
29,26:12
29,28:10
29,30:8
29,54:12
29,55:5
29,56:5
29,57:5
29,59:12
29,61:6
29,62:2
29,63:5
29,64:2
29,65:2
29,66:12
29,67:6
30,26:4
30,28:2
30,40:4
30,43:5
30,44:4
30,45:5
30,46:5
30,47:5
30,49:5
30,50:4
30,51:4
31,1:4
31,2:4
31,3:4
31,4:4
31,7:4
31,8:1
31,9:7
31,10:7
31,13:7
31,14:7
31,15:1
31,16:1
31,17:1
31,18:2
31,19:2
31,20:2
31,21:2
31,22:8
31,23:8
31,24:8
31,25:4
31,26:12
31,28:10
31,30:8
31,54:12
31,55:5
31,56:5
31,57:5
31,59:12
31,61:6
31,62:2
31,63:5
31,64:2
31,65:2
31,66:12
31,67:6
32,1:4
32,2:4
32,3:4
32,4:4
32,7:4
32,8:1
32,9:7
32,10:7
32,13:7
32,14:7
32,15:1
32,16:1
32,17:1
32,18:2
32,19:2
32,20:2
32,21:2
32,22:8
32,23:8
32,24:8
32,25:4
32,26:12
32,28:10
32,30:8
32,54:12
32,55:5
32,56:5
32,57:5
32,59:12
32,61:6
32,62:2
32,63:5
32,64:2
32,65:2
32,66:12
32,67:6
33,22:1
33,23:1
33,24:1
33,26:5
33,28:3
33,30:1
33,54:5
33,59:5
33,66:5
34,22:1
34,23:1
34,24:1
34,26:5
34,28:3
34,30:1
34,54:5
34,59:5
34,66:5
35,9:2
35,10:2
35,13:2
35,14:2
35,22:3
35,23:3
35,24:3
35,26:7
35,28:5
35,30:3
35,33:2
35,34:2
35,54:7
35,59:7
35,61:1
35,66:7
35,67:1
36,1:2
36,2:2
36,3:2
36,4:2
36,7:2
36,9:5
36,10:5
36,13:5
36,14:5
36,22:6
36,23:6
36,24:6
36,25:2
36,26:10
36,28:8
36,30:6
36,33:5
36,34:5
36,35:3
36,37:3
36,54:10
36,55:3
36,56:3
36,57:3
36,59:10
36,61:4
36,63:3
36,66:10
36,67:4
37,9:2
37,10:2
37,13:2
37,14:2
37,22:3
37,23:3
37,24:3
37,26:7
37,28:5
37,30:3
37,33:2
37,34:2
37,54:7
37,59:7
37,61:1
37,66:7
37,67:1
38,1:5
38,2:5
38,3:5
38,4:5
38,7:5
38,8:2
38,9:8
38,10:8
38,13:8
38,14:8
38,15:2
38,16:2
38,17:2
38,18:3
38,19:3
38,20:3
38,21:3
38,22:9
38,23:9
38,24:9
38,25:5
38,26:13
38,27:1
38,28:11
38,29:1
38,30:9
38,31:1
38,32:1
38,33:8
38,34:8
38,35:6
38,36:3
38,37:6
38,54:13
38,55:6
38,56:6
38,57:6
38,59:13
38,61:7
38,62:3
38,63:6
38,64:3
38,65:3
38,66:13
38,67:7
39,1:5
39,2:5
39,3:5
39,4:5
39,7:5
39,8:2
39,9:8
39,10:8
39,13:8
39,14:8
39,15:2
39,16:2
39,17:2
39,18:3
39,19:3
39,20:3
39,21:3
39,22:9
39,23:9
39,24:9
39,25:5
39,26:13
39,27:1
39,28:11
39,29:1
39,30:9
39,31:1
39,32:1
39,33:8
39,34:8
39,35:6
39,36:3
39,37:6
39,54:13
39,55:6
39,56:6
39,57:6
39,59:13
39,61:7
39,62:3
39,63:6
39,64:3
39,65:3
39,66:13
39,67:7
40,43:1
40,45:1
40,46:1
40,47:1
40,49:1
41,1:7
41,2:7
41,3:7
41,4:7
41,7:7
41,8:4
41,9:10
41,10:10
41,13:10
41,14:10
41,15:4
41,16:4
41,17:4
41,18:5
41,19:5
41,20:5
41,21:5
41,22:11
41,23:11
41,24:11
41,25:7
41,26:15
41,27:3
41,28:13
41,29:3
41,30:11
41,31:3
41,32:3
41,33:10
41,34:10
41,35:8
41,36:5
41,37:8
41,38:2
41,39:2
41,40:15
41,43:16
41,44:15
41,45:16
41,46:16
41,47:16
41,48:3
41,49:16
41,50:15
41,51:15
41,54:15
41,55:8
41,56:8
41,57:8
41,58:2
41,59:15
41,61:9
41,62:5
41,63:8
41,64:5
41,65:5
41,66:15
41,67:9
42,1:7
42,2:7
42,3:7
42,4:7
42,7:7
42,8:4
42,9:10
42,10:10
42,13:10
42,14:10
42,15:4
42,16:4
42,17:4
42,18:5
42,19:5
42,20:5
42,21:5
42,22:11
42,23:11
42,24:11
42,25:7
42,26:15
42,27:3
42,28:13
42,29:3
42,30:11
42,31:3
42,32:3
42,33:10
42,34:10
42,35:8
42,36:5
42,37:8
42,38:2
42,39:2
42,40:15
42,43:16
42,44:15
42,45:16
42,46:16
42,47:16
42,48:3
42,49:16
42,50:15
42,51:15
42,54:15
42,55:8
42,56:8
42,57:8
42,58:2
42,59:15
42,61:9
42,62:5
42,63:8
42,64:5
42,65:5
42,66:15
42,67:9
44,43:1
44,45:1
44,46:1
44,47:1
44,49:1
48,1:4
48,2:4
48,3:4
48,4:4
48,7:4
48,8:1
48,9:7
48,10:7
48,13:7
48,14:7
48,15:1
48,16:1
48,17:1
48,18:2
48,19:2
48,20:2
48,21:2
48,22:8
48,23:8
48,24:8
48,25:4
48,26:12
48,28:10
48,30:8
48,33:7
48,34:7
48,35:5
48,36:2
48,37:5
48,40:12
48,43:13
48,44:12
48,45:13
48,46:13
48,47:13
48,49:13
48,50:12
48,51:12
48,54:12
48,55:5
48,56:5
48,57:5
48,59:12
48,61:6
48,62:2
48,63:5
48,64:2
48,65:2
48,66:12
48,67:6
48,68:6
48,69:6
48,71:6
48,72:6
48,73:2
48,74:2
48,80:2
48,84:10
48,86:10
50,43:1
50,45:1
50,46:1
50,47:1
50,49:1
51,43:1
51,45:1
51,46:1
51,47:1
51,49:1
52,1:7
52,2:7
52,3:7
52,4:7
52,7:7
52,8:4
52,9:10
52,10:10
52,13:10
52,14:10
52,15:4
52,16:4
52,17:4
52,18:5
52,19:5
52,20:5
52,21:5
52,22:11
52,23:11
52,24:11
52,25:7
52,26:15
52,27:3
52,28:13
52,29:3
52,30:11
52,31:3
52,32:3
52,33:10
52,34:10
52,35:8
52,36:5
52,37:8
52,38:2
52,39:2
52,40:15
52,43:16
52,44:15
52,45:16
52,46:16
52,47:16
52,48:3
52,49:16
52,50:15
52,51:15
52,54:15
52,55:8
52,56:8
52,57:8
52,58:2
52,59:15
52,61:9
52,62:5
52,63:8
52,64:5
52,65:5
52,66:15
52,67:9
53,1:7
53,2:7
53,3:7
53,4:7
53,7:7
53,8:4
53,9:10
53,10:10
53,13:10
53,14:10
53,15:4
53,16:4
53,17:4
53,18:5
53,19:5
53,20:5
53,21:5
53,22:11
53,23:11
53,24:11
53,25:7
53,26:15
53,27:3
53,28:13
53,29:3
53,30:11
53,31:3
53,32:3
53,33:10
53,34:10
53,35:8
53,36:5
53,37:8
53,38:2
53,39:2
53,40:15
53,43:16
53,44:15
53,45:16
53,46:16
53,47:16
53,48:3
53,49:16
53,50:15
53,51:15
53,54:15
53,55:8
53,56:8
53,57:8
53,58:2
53,59:15
53,61:9
53,62:5
53,63:8
53,64:5
53,65:5
53,66:15
53,67:9
54,43:1
54,45:1
54,46:1
54,47:1
54,49:1
55,9:2
55,10:2
55,13:2
55,14:2
55,22:3
55,23:3
55,24:3
55,26:7
55,28:5
55,30:3
55,33:2
55,34:2
55,40:7
55,43:8
55,44:7
55,45:8
55,46:8
55,47:8
55,49:8
55,50:7
55,51:7
55,54:7
55,68:1
55,69:1
55,71:1
55,72:1
56,9:2
56,10:2
56,13:2
56,14:2
56,22:3
56,23:3
56,24:3
56,26:7
56,28:5
56,30:3
56,33:2
56,34:2
56,40:7
56,43:8
56,44:7
56,45:8
56,46:8
56,47:8
56,49:8
56,50:7
56,51:7
56,54:7
56,68:1
56,69:1
56,71:1
56,72:1
57,9:2
57,10:2
57,13:2
57,14:2
57,22:3
57,23:3
57,24:3
57,26:7
57,28:5
57,30:3
57,33:2
57,34:2
57,40:7
57,43:8
57,44:7
57,45:8
57,46:8
57,47:8
57,49:8
57,50:7
57,51:7
57,54:7
57,68:1
57,69:1
57,71:1
57,72:1
58,1:5
58,2:5
58,3:5
58,4:5
58,7:5
58,8:2
58,9:8
58,10:8
58,13:8
58,14:8
58,15:2
58,16:2
58,17:2
58,18:3
58,19:3
58,20:3
58,21:3
58,22:9
58,23:9
58,24:9
58,25:5
58,26:13
58,27:1
58,28:11
58,29:1
58,30:9
58,31:1
58,32:1
58,33:8
58,34:8
58,35:6
58,36:3
58,37:6
58,40:13
58,43:14
58,44:13
58,45:14
58,46:14
58,47:14
58,48:1
58,49:14
58,50:13
58,51:13
58,54:13
58,55:6
58,56:6
58,57:6
58,59:13
58,61:7
58,62:3
58,63:6
58,64:3
58,65:3
58,66:13
58,68:7
58,69:7
58,71:7
58,72:7
58,80:3
59,43:1
59,45:1
59,46:1
59,47:1
59,49:1
60,1:7
60,2:7
60,3:7
60,4:7
60,7:7
60,8:4
60,9:10
60,10:10
60,13:10
60,14:10
60,15:4
60,16:4
60,17:4
60,18:5
60,19:5
60,20:5
60,21:5
60,22:11
60,23:11
60,24:11
60,25:7
60,26:15
60,27:3
60,28:13
60,29:3
60,30:11
60,31:3
60,32:3
60,33:10
60,34:10
60,35:8
60,36:5
60,37:8
60,38:2
60,39:2
60,40:15
60,43:16
60,44:15
60,45:16
60,46:16
60,47:16
60,48:3
60,49:16
60,50:15
60,51:15
60,54:15
60,55:8
60,56:8
60,57:8
60,58:2
60,59:15
60,61:9
60,62:5
60,63:8
60,64:5
60,65:5
60,66:15
60,68:9
60,69:9
60,71:9
60,72:9
60,80:5
61,9:1
61,10:1
61,13:1
61,14:1
61,22:2
61,23:2
61,24:2
61,26:6
61,28:4
61,30:2
61,33:1
61,34:1
61,40:6
61,43:7
61,44:6
61,45:7
61,46:7
61,47:7
61,49:7
61,50:6
61,51:6
61,54:6
61,59:6
61,66:6
62,1:2
62,2:2
62,3:2
62,4:2
62,7:2
62,9:5
62,10:5
62,13:5
62,14:5
62,22:6
62,23:6
62,24:6
62,25:2
62,26:10
62,28:8
62,30:6
62,33:5
62,34:5
62,35:3
62,37:3
62,40:10
62,43:11
62,44:10
62,45:11
62,46:11
62,47:11
62,49:11
62,50:10
62,51:10
62,54:10
62,55:3
62,56:3
62,57:3
62,59:10
62,61:4
62,63:3
62,66:10
62,68:4
62,69:4
62,71:4
62,72:4
63,9:2
63,10:2
63,13:2
63,14:2
63,22:3
63,23:3
63,24:3
63,26:7
63,28:5
63,30:3
63,33:2
63,34:2
63,40:7
63,43:8
63,44:7
63,45:8
63,46:8
63,47:8
63,49:8
63,50:7
63,51:7
63,54:7
63,59:7
63,61:1
63,66:7
63,68:1
63,69:1
63,71:1
63,72:1
64,1:2
64,2:2
64,3:2
64,4:2
64,7:2
64,9:5
64,10:5
64,13:5
64,14:5
64,22:6
64,23:6
64,24:6
64,25:2
64,26:10
64,28:8
64,30:6
64,33:5
64,34:5
64,35:3
64,37:3
64,40:10
64,43:11
64,44:10
64,45:11
64,46:11
64,47:11
64,49:11
64,50:10
64,51:10
64,54:10
64,55:3
64,56:3
64,57:3
64,59:10
64,61:4
64,63:3
64,66:10
64,68:4
64,69:4
64,71:4
64,72:4
65,1:2
65,2:2
65,3:2
65,4:2
65,7:2
65,9:5
65,10:5
65,13:5
65,14:5
65,22:6
65,23:6
65,24:6
65,25:2
65,26:10
65,28:8
65,30:6
65,33:5
65,34:5
65,35:3
65,37:3
65,40:10
65,43:11
65,44:10
65,45:11
65,46:11
65,47:11
65,49:11
65,50:10
65,51:10
65,54:10
65,55:3
65,56:3
65,57:3
65,59:10
65,61:4
65,63:3
65,66:10
65,68:4
65,69:4
65,71:4
65,72:4
66,43:1
66,45:1
66,46:1
66,47:1
66,49:1
67,9:1
67,10:1
67,13:1
67,14:1
67,22:2
67,23:2
67,24:2
67,26:6
67,28:4
67,30:2
67,33:1
67,34:1
67,40:6
67,43:7
67,44:6
67,45:7
67,46:7
67,47:7
67,49:7
67,50:6
67,51:6
67,54:6
67,59:6
67,66:6
68,9:1
68,10:1
68,13:1
68,14:1
68,22:2
68,23:2
68,24:2
68,26:6
68,28:4
68,30:2
68,33:1
68,34:1
68,40:6
68,43:7
68,44:6
68,45:7
68,46:7
68,47:7
68,49:7
68,50:6
68,51:6
68,54:6
68,59:6
68,66:6
69,9:1
69,10:1
69,13:1
69,14:1
69,22:2
69,23:2
69,24:2
69,26:6
69,28:4
69,30:2
69,33:1
69,34:1
69,40:6
69,43:7
69,44:6
69,45:7
69,46:7
69,47:7
69,49:7
69,50:6
69,51:6
69,54:6
69,59:6
69,66:6
70,1:7
70,2:7
70,3:7
70,4:7
70,7:7
70,8:4
70,9:10
70,10:10
70,13:10
70,14:10
70,15:4
70,16:4
70,17:4
70,18:5
70,19:5
70,20:5
70,21:5
70,22:11
70,23:11
70,24:11
70,25:7
70,26:15
70,27:3
70,28:13
70,29:3
70,30:11
70,31:3
70,32:3
70,33:10
70,34:10
70,35:8
70,36:5
70,37:8
70,38:2
70,39:2
70,40:15
70,43:16
70,44:15
70,45:16
70,46:16
70,47:16
70,48:3
70,49:16
70,50:15
70,51:15
70,54:15
70,55:8
70,56:8
70,57:8
70,58:2
70,59:15
70,61:9
70,62:5
70,63:8
70,64:5
70,65:5
70,66:15
70,67:9
70,68:9
70,69:9
70,71:9
70,73:5
70,74:5
70,75:2
70,76:2
70,77:2
71,9:1
71,10:1
71,13:1
71,14:1
71,22:2
71,23:2
71,24:2
71,26:6
71,28:4
71,30:2
71,33:1
71,34:1
71,40:6
71,43:7
71,44:6
71,45:7
71,46:7
71,47:7
71,49:7
71,50:6
71,51:6
71,54:6
71,59:6
71,66:6
72,9:1
72,10:1
72,13:1
72,14:1
72,22:2
72,23:2
72,24:2
72,26:6
72,28:4
72,30:2
72,33:1
72,34:1
72,40:6
72,43:7
72,44:6
72,45:7
72,46:7
72,47:7
72,49:7
72,50:6
72,51:6
72,54:6
72,59:6
72,66:6
73,1:2
73,2:2
73,3:2
73,4:2
73,7:2
73,9:5
73,10:5
73,13:5
73,14:5
73,22:6
73,23:6
73,24:6
73,25:2
73,26:10
73,28:8
73,30:6
73,33:5
73,34:5
73,35:3
73,37:3
73,40:10
73,43:11
73,44:10
73,45:11
73,46:11
73,47:11
73,49:11
73,50:10
73,51:10
73,54:10
73,55:3
73,56:3
73,57:3
73,59:10
73,61:4
73,63:3
73,66:10
73,67:4
73,68:4
73,69:4
73,71:4
73,72:4
74,1:2
74,2:2
74,3:2
74,4:2
74,7:2
74,9:5
74,10:5
74,13:5
74,14:5
74,22:6
74,23:6
74,24:6
74,25:2
74,26:10
74,28:8
74,30:6
74,33:5
74,34:5
74,35:3
74,37:3
74,40:10
74,43:11
74,44:10
74,45:11
74,46:11
74,47:11
74,49:11
74,50:10
74,51:10
74,54:10
74,55:3
74,56:3
74,57:3
74,59:10
74,61:4
74,63:3
74,66:10
74,67:4
74,68:4
74,69:4
74,71:4
74,72:4
75,1:5
75,2:5
75,3:5
75,4:5
75,7:5
75,8:2
75,9:8
75,10:8
75,13:8
75,14:8
75,15:2
75,16:2
75,17:2
75,18:3
75,19:3
75,20:3
75,21:3
75,22:9
75,23:9
75,24:9
75,25:5
75,26:13
75,27:1
75,28:11
75,29:1
75,30:9
75,31:1
75,32:1
75,33:8
75,34:8
75,35:6
75,36:3
75,37:6
75,40:13
75,43:14
75,44:13
75,45:14
75,46:14
75,47:14
75,48:1
75,49:14
75,50:13
75,51:13
75,54:13
75,55:6
75,56:6
75,57:6
75,59:13
75,61:7
75,62:3
75,63:6
75,64:3
75,65:3
75,66:13
75,67:7
75,68:7
75,69:7
75,71:7
75,72:7
75,73:3
75,74:3
75,80:3
76,1:5
76,2:5
76,3:5
76,4:5
76,7:5
76,8:2
76,9:8
76,10:8
76,13:8
76,14:8
76,15:2
76,16:2
76,17:2
76,18:3
76,19:3
76,20:3
76,21:3
76,22:9
76,23:9
76,24:9
76,25:5
76,26:13
76,27:1
76,28:11
76,29:1
76,30:9
76,31:1
76,32:1
76,33:8
76,34:8
76,35:6
76,36:3
76,37:6
76,40:13
76,43:14
76,44:13
76,45:14
76,46:14
76,47:14
76,48:1
76,49:14
76,50:13
76,51:13
76,54:13
76,55:6
76,56:6
76,57:6
76,59:13
76,61:7
76,62:3
76,63:6
76,64:3
76,65:3
76,66:13
76,67:7
76,68:7
76,69:7
76,71:7
76,72:7
76,73:3
76,74:3
76,80:3
77,1:5
77,2:5
77,3:5
77,4:5
77,7:5
77,8:2
77,9:8
77,10:8
77,13:8
77,14:8
77,15:2
77,16:2
77,17:2
77,18:3
77,19:3
77,20:3
77,21:3
77,22:9
77,23:9
77,24:9
77,25:5
77,26:13
77,27:1
77,28:11
77,29:1
77,30:9
77,31:1
77,32:1
77,33:8
77,34:8
77,35:6
77,36:3
77,37:6
77,40:13
77,43:14
77,44:13
77,45:14
77,46:14
77,47:14
77,48:1
77,49:14
77,50:13
77,51:13
77,54:13
77,55:6
77,56:6
77,57:6
77,59:13
77,61:7
77,62:3
77,63:6
77,64:3
77,65:3
77,66:13
77,67:7
77,68:7
77,69:7
77,71:7
77,72:7
77,73:3
77,74:3
77,80:3
78,1:5
78,2:5
78,3:5
78,4:5
78,7:5
78,8:2
78,9:8
78,10:8
78,13:8
78,14:8
78,15:2
78,16:2
78,17:2
78,18:3
78,19:3
78,20:3
78,21:3
78,22:9
78,23:9
78,24:9
78,25:5
78,26:13
78,27:1
78,28:11
78,29:1
78,30:9
78,31:1
78,32:1
78,33:8
78,34:8
78,35:6
78,36:3
78,37:6
78,40:13
78,43:14
78,44:13
78,45:14
78,46:14
78,47:14
78,48:1
78,49:14
78,50:13
78,51:13
78,54:13
78,55:6
78,56:6
78,57:6
78,59:13
78,61:7
78,62:3
78,63:6
78,64:3
78,65:3
78,66:13
78,67:7
78,68:7
78,69:7
78,71:7
78,72:7
78,73:3
78,74:3
78,80:3
79,1:5
79,2:5
79,3:5
79,4:5
79,7:5
79,8:2
79,9:8
79,10:8
79,13:8
79,14:8
79,15:2
79,16:2
79,17:2
79,18:3
79,19:3
79,20:3
79,21:3
79,22:9
79,23:9
79,24:9
79,25:5
79,26:13
79,27:1
79,28:11
79,29:1
79,30:9
79,31:1
79,32:1
79,33:8
79,34:8
79,35:6
79,36:3
79,37:6
79,40:13
79,43:14
79,44:13
79,45:14
79,46:14
79,47:14
79,48:1
79,49:14
79,50:13
79,51:13
79,54:13
79,55:6
79,56:6
79,57:6
79,59:13
79,61:7
79,62:3
79,63:6
79,64:3
79,65:3
79,66:13
79,67:7
79,68:7
79,69:7
79,71:7
79,72:7
79,73:3
79,74:3
79,80:3
80,1:2
80,2:2
80,3:2
80,4:2
80,7:2
80,9:5
80,10:5
80,13:5
80,14:5
80,22:6
80,23:6
80,24:6
80,25:2
80,26:10
80,28:8
80,30:6
80,33:5
80,34:5
80,35:3
80,37:3
80,40:10
80,43:11
80,44:10
80,45:11
80,46:11
80,47:11
80,49:11
80,50:10
80,51:10
80,54:10
80,55:3
80,56:3
80,57:3
80,59:10
80,61:4
80,63:3
80,66:10
80,67:4
80,68:4
80,69:4
80,71:4
80,72:4
81,1:5
81,2:5
81,3:5
81,4:5
81,7:5
81,8:2
81,9:8
81,10:8
81,13:8
81,14:8
81,15:2
81,16:2
81,17:2
81,18:3
81,19:3
81,20:3
81,21:3
81,22:9
81,23:9
81,24:9
81,25:5
81,26:13
81,27:1
81,28:11
81,29:1
81,30:9
81,31:1
81,32:1
81,33:8
81,34:8
81,35:6
81,36:3
81,37:6
81,40:13
81,43:14
81,44:13
81,45:14
81,46:14
81,47:14
81,48:1
81,49:14
81,50:13
81,51:13
81,54:13
81,55:6
81,56:6
81,57:6
81,59:13
81,61:7
81,62:3
81,63:6
81,64:3
81,65:3
81,66:13
81,67:7
81,68:7
81,69:7
81,71:7
81,72:7
81,73:3
81,74:3
81,80:3
82,1:5
82,2:5
82,3:5
82,4:5
82,7:5
82,8:2
82,9:8
82,10:8
82,13:8
82,14:8
82,15:2
82,16:2
82,17:2
82,18:3
82,19:3
82,20:3
82,21:3
82,22:9
82,23:9
82,24:9
82,25:5
82,26:13
82,27:1
82,28:11
82,29:1
82,30:9
82,31:1
82,32:1
82,33:8
82,34:8
82,35:6
82,36:3
82,37:6
82,40:13
82,43:14
82,44:13
82,45:14
82,46:14
82,47:14
82,48:1
82,49:14
82,50:13
82,51:13
82,54:13
82,55:6
82,56:6
82,57:6
82,59:13
82,61:7
82,62:3
82,63:6
82,64:3
82,65:3
82,66:13
82,67:7
82,68:7
82,69:7
82,71:7
82,72:7
82,73:3
82,74:3
82,80:3
82,84:11
83,1:5
83,2:5
83,3:5
83,4:5
83,7:5
83,8:2
83,9:8
83,10:8
83,13:8
83,14:8
83,15:2
83,16:2
83,17:2
83,18:3
83,19:3
83,20:3
83,21:3
83,22:9
83,23:9
83,24:9
83,25:5
83,26:13
83,27:1
83,28:11
83,29:1
83,30:9
83,31:1
83,32:1
83,33:8
83,34:8
83,35:6
83,36:3
83,37:6
83,40:13
83,43:14
83,44:13
83,45:14
83,46:14
83,47:14
83,48:1
83,49:14
83,50:13
83,51:13
83,54:13
83,55:6
83,56:6
83,57:6
83,59:13
83,61:7
83,62:3
83,63:6
83,64:3
83,65:3
83,66:13
83,67:7
83,68:7
83,69:7
83,71:7
83,72:7
83,73:3
83,74:3
83,80:3
83,84:11
84,26:2
84,40:2
84,43:3
84,44:2
84,45:3
84,46:3
84,47:3
84,49:3
84,50:2
84,51:2
84,54:2
84,59:2
84,66:2
85,1:5
85,2:5
85,3:5
85,4:5
85,7:5
85,8:2
85,9:8
85,10:8
85,13:8
85,14:8
85,15:2
85,16:2
85,17:2
85,18:3
85,19:3
85,20:3
85,21:3
85,22:9
85,23:9
85,24:9
85,25:5
85,26:13
85,27:1
85,28:11
85,29:1
85,30:9
85,31:1
85,32:1
85,33:8
85,34:8
85,35:6
85,36:3
85,37:6
85,40:13
85,43:14
85,44:13
85,45:14
85,46:14
85,47:14
85,48:1
85,49:14
85,50:13
85,51:13
85,54:13
85,55:6
85,56:6
85,57:6
85,59:13
85,61:7
85,62:3
85,63:6
85,64:3
85,65:3
85,66:13
85,67:7
85,68:7
85,69:7
85,71:7
85,72:7
85,73:3
85,74:3
85,80:3
85,84:11
86,26:2
86,40:2
86,43:3
86,44:2
86,45:3
86,46:3
86,47:3
86,49:3
86,50:2
86,51:2
86,54:2
86,59:2
86,66:2
87,1:4
87,2:4
87,3:4
87,4:4
87,7:4
87,8:1
87,9:7
87,10:7
87,13:7
87,14:7
87,15:1
87,16:1
87,17:1
87,18:2
87,19:2
87,20:2
87,21:2
87,22:8
87,23:8
87,24:8
87,25:4
87,26:12
87,28:10
87,30:8
87,33:7
87,34:7
87,35:5
87,36:2
87,37:5
87,40:12
87,43:13
87,44:12
87,45:13
87,46:13
87,47:13
87,49:13
87,50:12
87,51:12
87,54:12
87,55:5
87,56:5
87,57:5
87,59:12
87,61:6
87,62:2
87,63:5
87,64:2
87,65:2
87,66:12
87,67:6
87,68:6
87,69:6
87,71:6
87,72:6
87,73:2
87,74:2
87,80:2
87,84:10
87,86:10
88,1:4
88,2:4
88,3:4
88,4:4
88,7:4
88,8:1
88,9:7
88,10:7
88,13:7
88,14:7
88,15:1
88,16:1
88,17:1
88,18:2
88,19:2
88,20:2
88,21:2
88,22:8
88,23:8
88,24:8
88,25:4
88,26:12
88,28:10
88,30:8
88,33:7
88,34:7
88,35:5
88,36:2
88,37:5
88,40:12
88,43:13
88,44:12
88,45:13
88,46:13
88,47:13
88,49:13
88,50:12
88,51:12
88,54:12
88,55:5
88,56:5
88,57:5
88,59:12
88,61:6
88,62:2
88,63:5
88,64:2
88,65:2
88,66:12
88,67:6
88,68:6
88,69:6
88,71:6
88,72:6
88,73:2
88,74:2
88,80:2
88,84:10
88,86:10
89,1:4
89,2:4
89,3:4
89,4:4
89,7:4
89,8:1
89,9:7
89,10:7
89,13:7
89,14:7
89,15:1
89,16:1
89,17:1
89,18:2
89,19:2
89,20:2
89,21:2
89,22:8
89,23:8
89,24:8
89,25:4
89,26:12
89,28:10
89,30:8
89,33:7
89,34:7
89,35:5
89,36:2
89,37:5
89,40:12
89,43:13
89,44:12
89,45:13
89,46:13
89,47:13
89,49:13
89,50:12
89,51:12
89,54:12
89,55:5
89,56:5
89,57:5
89,59:12
89,61:6
89,62:2
89,63:5
89,64:2
89,65:2
89,66:12
89,67:6
89,68:6
89,69:6
89,71:6
89,72:6
89,73:2
89,74:2
89,80:2
89,84:10
89,86:10

<end>

<optimal SALBP-1 value>
23


<rand seed>
467321153

<Lower Bounds>
Lm1=22
Lms1=22
Lm2=8
Lm3=12
Lm4=23
Best=23

<Optimal Stations (Iterations: 10)>
30
